Normalized Data/p02_00_tsplib0_normalized_split0.vrp
NAME:p02_00_tsplib0_NORMALIZED_split
BEST_KNOWN: 0
COMMENT: 0
DIMENSION: 220
CAPACITY: 100
EDGE_WEIGHT_FORMAT: FUNCTION
EDGE_WEIGHT_TYPE: EXACT_2D
NODE_COORD_SECTION
1 0.00000 0.00000
2 -18 -18
3 -18 -18
4 -18 -18
5 -4 -14
6 -4 -14
7 -4 -14
8 -4 -14
9 -4 -14
10 -19 5
11 -19 5
12 -19 5
13 5 -5
14 5 -5
15 15 -20
16 15 -20
17 -7 -6
18 -7 -6
19 -7 -6
20 -7 -6
21 10 10
22 15 5
23 15 5
24 -14 19
25 0 26
26 0 26
27 0 26
28 0 26
29 0 26
30 15 25
31 15 25
32 15 25
33 -5 11
34 -5 11
35 22 -5
36 22 -5
37 22 -5
38 22 -5
39 22 17
40 22 17
41 22 17
42 22 -16
43 -19 -4
44 -19 -4
45 -19 -4
46 -19 -4
47 -7 4
48 -7 4
49 -7 4
50 -7 4
51 -7 4
52 -31 16
53 -31 16
54 -31 16
55 -31 16
56 -31 16
57 22 8
58 26 -26
59 26 -26
60 4 -27
61 -14 -27
62 -14 -27
63 -14 -27
64 -14 -27
65 -29 -12
66 -29 -12
67 -29 -12
68 -29 -12
69 -33 3
70 -33 3
71 -33 3
72 -33 3
73 -33 3
74 -33 3
75 -23 24
76 1 6
77 1 6
78 1 6
79 15 -6
80 15 -6
81 15 -6
82 -5 -24
83 12 -14
84 12 -14
85 12 -14
86 12 -14
87 12 -14
88 3 -14
89 3 -14
90 -9 36
91 -9 36
92 -9 36
93 -9 36
94 -18 13
95 -14 -11
96 -14 -11
97 -14 -11
98 -14 -11
99 -14 -11
100 -14 -11
101 10 0
102 10 0
103 10 0
104 10 0
105 15 10
106 15 10
107 15 10
108 14 -30
109 14 -30
110 14 -30
111 14 -30
112 20 -25
113 7 26
114 7 26
115 7 26
116 7 26
117 -10 20
118 -10 20
119 -10 10
120 -10 10
121 -10 10
122 -10 10
123 -28 -23
124 -25 -26
125 -25 -26
126 -25 -26
127 -24 -21
128 -24 -21
129 -24 -21
130 -19 8
131 -19 8
132 -19 8
133 10 -10
134 10 -10
135 11 2
136 11 2
137 11 2
138 11 2
139 11 2
140 11 2
141 10 -25
142 10 -25
143 10 -25
144 10 -25
145 8 -19
146 8 -19
147 8 -19
148 8 -19
149 8 -19
150 -28 -2
151 -28 -2
152 -28 -2
153 -25 16
154 -25 16
155 -11 -1
156 -11 -1
157 -11 -1
158 -11 -1
159 14 -2
160 14 -2
161 14 -2
162 14 -2
163 15 17
164 15 17
165 27 1
166 27 1
167 -30 30
168 -34 -15
169 -34 -15
170 -34 -15
171 -34 -15
172 -34 -15
173 25 -13
174 0 20
175 0 20
176 30 24
177 30 24
178 30 24
179 30 24
180 24 -36
181 24 -36
182 24 -36
183 24 -36
184 24 -36
185 -4 -34
186 -10 -20
187 -10 -20
188 -10 -20
189 -20 -10
190 -20 -10
191 -20 -10
192 -25 -35
193 10 30
194 10 30
195 17 32
196 17 32
197 17 32
198 5 2
199 5 2
200 -2 -7
201 -2 -7
202 -2 -7
203 10 -36
204 26 -32
205 26 -32
206 26 -32
207 19 -35
208 19 -35
209 -13 -16
210 -13 -16
211 -13 -16
212 -13 -16
213 0 -20
214 0 -20
215 0 -20
216 0 -3
217 0 -3
218 0 -3
219 0 -3
220 0 -3
DEMAND_SECTION
1 0
2 10
3 1
4 1
5 10
6 5
7 1
8 1
9 1
10 5
11 1
12 1
13 20
14 1
15 10
16 5
17 10
18 1
19 1
20 1
21 10
22 10
23 1
24 20
25 10
26 5
27 1
28 1
29 1
30 20
31 5
32 1
33 10
34 1
35 5
36 1
37 1
38 1
39 20
40 1
41 1
42 5
43 10
44 1
45 1
46 1
47 10
48 1
49 1
50 1
51 1
52 5
53 1
54 1
55 1
56 1
57 10
58 10
59 5
60 20
61 5
62 1
63 1
64 1
65 1
66 1
67 1
68 1
69 10
70 5
71 1
72 1
73 1
74 1
75 10
76 10
77 1
78 1
79 10
80 1
81 1
82 20
83 5
84 1
85 1
86 1
87 1
88 10
89 5
90 10
91 5
92 1
93 1
94 20
95 10
96 5
97 1
98 1
99 1
100 1
101 10
102 1
103 1
104 1
105 5
106 1
107 1
108 5
109 1
110 1
111 1
112 10
113 10
114 5
115 1
116 1
117 10
118 1
119 20
120 1
121 1
122 1
123 10
124 5
125 1
126 1
127 10
128 1
129 1
130 10
131 1
132 1
133 10
134 5
135 10
136 5
137 1
138 1
139 1
140 1
141 10
142 1
143 1
144 1
145 10
146 1
147 1
148 1
149 1
150 1
151 1
152 1
153 10
154 5
155 5
156 1
157 1
158 1
159 10
160 1
161 1
162 1
163 10
164 5
165 10
166 1
167 5
168 10
169 5
170 1
171 1
172 1
173 10
174 10
175 5
176 10
177 5
178 1
179 1
180 5
181 1
182 1
183 1
184 1
185 10
186 10
187 1
188 1
189 5
190 1
191 1
192 20
193 5
194 1
195 20
196 5
197 1
198 20
199 1
200 5
201 1
202 1
203 5
204 5
205 1
206 1
207 1
208 1
209 1
210 1
211 1
212 1
213 5
214 1
215 1
216 10
217 1
218 1
219 1
220 1
DEPOT_SECTION
1
-1
EOF