Normalized Data/p02_00_tsplib0_normalized_split0.sol
219 -13 85 14 15 111 58 57 205 204 203 181 180 182 179 183 206 207 202 110 107 109 108 143 141 140 142 145 146 147 148 144 -19 18 17 16 95 96 99 97 98 94 210 209 208 211 3 1 2 189 190 188 45 44 43 42 11 9 10 130 129 131 46 50 48 47 -20 31 30 29 194 196 195 193 192 114 115 112 113 174 173 -49 118 119 121 120 93 23 117 116 33 32 75 76 -77 27 25 24 26 28 89 91 92 90 166 74 152 153 54 53 55 51 52 70 73 69 72 71 68 150 151 149 155 157 -101 102 100 134 135 198 197 -103 159 164 165 56 177 178 175 176 38 39 40 163 162 104 105 106 21 22 138 136 137 139 -156 154 64 67 65 66 169 168 167 170 171 128 126 127 122 125 124 123 191 60 63 62 61 185 186 187 7 218 219 -160 161 158 79 78 80 37 36 35 34 172 41 82 86 84 83 132 133 12 215 -216 88 87 213 214 212 59 184 81 4 8 5 6 200 199 201 217 0 





OBJ=
828.441
BEST_KNOWN=
0.000